Data path: /scratch/opt/lxu/CFLG/benchmarks/random_A
Instance: r_10_0.2_9.txt
Result path: /scratch/opt/lxu/CFLG/results/random_A
Solver: Gurobi
Time limit: 3600
Formulation: EFP
Cover: Small
julia --project=. src/main.jl /scratch/opt/lxu/CFLG/benchmarks/random_A r_10_0.2_9.txt /scratch/opt/lxu/CFLG/results/random_A Gurobi 3600 EFP Small
The latest version of Julia in the `release` channel is 1.11.5+0.x64.linux.gnu. You currently have `1.11.4+0.x64.linux.gnu` installed. Run:

  juliaup update

in your terminal shell to install Julia 1.11.5+0.x64.linux.gnu and update the `release` channel to that version.
/scratch/opt/lxu/CFLG/benchmarks/random_A Gurobi 3600.0 /scratch/opt/lxu/CFLG/results/random_A r_10_0.2_9.txt EFP Small
/scratch/opt/lxu/CFLG/benchmarks/random_A/r_10_0.2_9.txt

 read graph
data loaded


after absorb:4 10

max_piece:22
problem_graph/original graph: node: 39/10 edge: 38/9 dlt: 0.1176495172100458 break_avg_len: 0.11145743735688554 break_max_len: 0.11427002207779581elapsed CPU time: 0.044668 seconds
Set parameter TokenServer to value "solice01.zib.de"
Set parameter Threads to value 1
Set parameter OutputFlag to value 1
Set parameter MIPGap to value 0.0001
Set parameter MIPGapAbs to value 1
Set parameter TimeLimit to value 3599.955332

 more cuts:false
formulation:EFP0 38 39

 model loaded

Gurobi Optimizer version 12.0.1 build v12.0.1rc0 (linux64 - "Debian GNU/Linux 12 (bookworm)")

CPU model: Intel(R) Xeon(R) Gold 5122 CPU @ 3.60GHz, instruction set [SSE2|AVX|AVX2|AVX512]
Thread count: 8 physical cores, 16 logical processors, using up to 1 threads

Non-default parameters:
TimeLimit  3599.955332
MIPGapAbs  1
Threads  1

Optimize a model with 713 rows, 490 columns and 1906 nonzeros
Model fingerprint: 0xd5a357b0
Variable types: 153 continuous, 337 integer (337 binary)
Coefficient statistics:
  Matrix range     [1e-01, 1e+00]
  Objective range  [1e+00, 1e+00]
  Bounds range     [1e-01, 2e-01]
  RHS range        [1e-01, 2e+00]
Found heuristic solution: objective 38.0000000
Presolve removed 310 rows and 202 columns
Presolve time: 0.01s
Presolved: 403 rows, 288 columns, 1598 nonzeros
Variable types: 74 continuous, 214 integer (214 binary)

Root relaxation: objective 8.736840e+00, 352 iterations, 0.00 seconds (0.00 work units)

    Nodes    |    Current Node    |     Objective Bounds      |     Work
 Expl Unexpl |  Obj  Depth IntInf | Incumbent    BestBd   Gap | It/Node Time

     0     0    8.73684    0  165   38.00000    8.73684  77.0%     -    0s
H    0     0                      20.0000000    8.73684  56.3%     -    0s
     0     0    9.97713    0  173   20.00000    9.97713  50.1%     -    0s
H    0     0                      19.0000000   10.06309  47.0%     -    0s
     0     0   10.06309    0  173   19.00000   10.06309  47.0%     -    0s
     0     0   12.44696    0  145   19.00000   12.44696  34.5%     -    0s
     0     0   12.52678    0  149   19.00000   12.52678  34.1%     -    0s
     0     0   12.52678    0  148   19.00000   12.52678  34.1%     -    0s
     0     0   13.50000    0  101   19.00000   13.50000  28.9%     -    0s
     0     0   13.50000    0   99   19.00000   13.50000  28.9%     -    0s
     0     0   13.50000    0  105   19.00000   13.50000  28.9%     -    0s
     0     0   13.50000    0  105   19.00000   13.50000  28.9%     -    0s
     0     0   13.50000    0   99   19.00000   13.50000  28.9%     -    0s
     0     0   13.50000    0  106   19.00000   13.50000  28.9%     -    0s
     0     0   13.50000    0   85   19.00000   13.50000  28.9%     -    0s
     0     0   13.50000    0   85   19.00000   13.50000  28.9%     -    0s
     0     0   13.50000    0   85   19.00000   13.50000  28.9%     -    0s
     0     0   13.50000    0   85   19.00000   13.50000  28.9%     -    0s
     0     2   14.00000    0   85   19.00000   14.00000  26.3%     -    0s
  5878  1491   17.53755   23   66   19.00000   16.51305  13.1%  20.7    5s
 10206  1939   17.72576   29   92   19.00000   17.00000  10.5%  20.2   10s
 16620  2135   18.00000   38   36   19.00000   17.70796  6.80%  19.9   15s

Cutting planes:
  Gomory: 25
  Cover: 48
  Implied bound: 6
  Clique: 1
  MIR: 39
  StrongCG: 1
  Flow cover: 121
  GUB cover: 5
  Inf proof: 5
  Zero half: 32
  RLT: 20
  Relax-and-lift: 9

Explored 21810 nodes (424841 simplex iterations) in 17.74 seconds (11.04 work units)
Thread count was 1 (of 16 available processors)

Solution count 3: 19 20 38 

Optimal solution found (tolerance 1.00e-04)
Best objective 1.900000000000e+01, best bound 1.800000000000e+01, gap 5.2632%

User-callback calls 50411, time in user-callback 0.04 sec

 sepatime0
Stat(MathOptInterface.OPTIMAL, 19.0, 18.000000000000004, 0.05263157894736823, 0.0, 0.044668, 17.743896007537842, 21810, Main.CFLG.EFP, "", #undef)
